proyfinal/src/viki/013/experimentInOfficeAgust.take6.output/fd2ca04f-065f-4ffd-b161-1d845f55bbff.als.dat
{'cnf.clauses': '118081',
 'cnf.totvars': '69608',
 'conflict literals': '10',
 'conflicts': '7',
 'decisions': '2862',
 'memused.mb': '16.61',
 'outcome': 'UNSAT',
 'propagations': '23468',
 'restarts': '1',
 'solver.msecs': 30,
 'task.msecs': 90}
