proyfinal/src/viki/013/experimentInOfficeAgust.take6.output/fd2ca04f-065f-4ffd-b161-1d845f55bbff.als.out
Reading from standard input... Use '--help' for help.
============================[ Problem Statistics ]=============================
|                                                                             |
|  Number of variables:         69608                                         |
|  Number of clauses:          118081                                         |
|  Parse time:                   0.02 s                                       |
|                                                                             |
============================[ Search Statistics ]==============================
| Conflicts |          ORIGINAL         |          LEARNT          | Progress |
|           |    Vars  Clauses Literals |    Limit  Clauses Lit/Cl |          |
===============================================================================
===============================================================================
restarts              : 1
conflicts             : 7              (231 /sec)
decisions             : 2862           (0.00 % random) (94334 /sec)
propagations          : 23468          (773526 /sec)
conflict literals     : 10             (0.00 % deleted)
Memory used           : 16.61 MB
CPU time              : 0.030339 s

UNSATISFIABLE
